24
 1 312 13
 2 375 15
 3 52 2
 4 540 20
 5 112 4
 6 406 14
 7 270 9
 8 93 3
 9 480 15
 10 132 4
 11 646 19
 12 630 18
 13 252 7
 14 370 10
 15 380 10
 16 273 7
 17 360 9
 18 41 1
 19 588 14
 20 430 10
 21 880 20
 22 270 6
 23 506 11
 24 846 18
432